1 1 -2 0
1 -1 3 0
1 2 -4 0
1 -2 3 0
1 2 1 0
1 -5 -6 0
1 -5 4 0
1 5 -3 0
1 -5 -7 0
1 5 8 0
1 -5 -9 0
1 5 -10 0
1 11 -6 0
1 -11 5 0
1 3 -2 0
1 3 -12 0
1 10 2 0
1 10 -13 0
1 -10 12 0
1 -4 14 0
1 4 15 0
1 4 -2 0
1 -4 -16 0
1 4 1 0
1 -17 11 0
1 17 4 0
1 17 -18 0
1 -19 7 0
1 -19 18 0
1 19 10 0
1 -20 21 0
1 -20 -3 0
1 20 8 0
1 -20 10 0
1 -12 6 0
1 12 -22 0
1 -12 3 0
1 12 -7 0
1 12 -8 0
1 12 23 0
1 24 21 0
1 24 6 0
1 24 -25 0
1 24 -26 0
1 -24 -3 0
1 24 -23 0
1 24 -10 0
1 -8 27 0
1 8 -28 0
1 -8 -24 0
1 -8 20 0
1 8 29 0
1 -8 -30 0
1 -6 31 0
1 6 30 0
1 -6 -8 0
1 6 -12 0
1 -6 -32 0
1 7 -24 0
1 7 -20 0
1 -7 -13 0
1 -21 -33 0
1 -21 24 0
1 21 -7 0
1 -21 12 0
1 -21 -32 0
1 -30 -28 0
1 -30 22 0
1 -28 22 0
1 28 -8 0
1 -29 22 0
1 29 -23 0
1 -27 -22 0
1 27 -8 0
1 -27 -34 0
1 23 -27 0
1 -23 -35 0
1 26 -28 0
1 26 36 0
1 26 -29 0
1 26 -30 0
1 -26 -12 0
1 -26 37 0
1 -34 -28 0
1 -34 24 0
1 -34 36 0
1 -34 -38 0
1 -34 30 0
1 34 -39 0
1 34 32 0
1 22 -27 0
1 -22 37 0
1 -22 -32 0
1 40 -41 0
1 42 43 0
1 42 40 0
1 -9 44 0
1 -9 45 0
1 -9 46 0
1 45 -47 0
1 45 -44 0
1 45 -11 0
1 -45 48 0
1 -43 -49 0
1 43 50 0
1 -43 -40 0
1 50 45 0
1 -50 -42 0
1 50 16 0
1 -50 -18 0
1 -41 51 0
1 -41 -9 0
1 41 -40 0
1 -48 45 0
1 48 40 0
1 18 43 0
1 -18 -47 0
1 -18 4 0
1 -18 50 0
1 -18 52 0
1 18 -46 0
1 18 17 0
1 15 -43 0
1 15 47 0
1 -15 20 0
1 15 -50 0
1 15 46 0
1 15 -18 0
1 -16 -43 0
1 -16 25 0
1 -16 47 0
1 16 -53 0
1 -16 -12 0
1 -16 -54 0
1 25 -43 0
1 -25 -47 0
1 -25 55 0
1 25 50 0
1 -44 56 0
1 -44 14 0
1 44 -25 0
1 44 45 0
1 44 -57 0
1 44 13 0
1 -46 15 0
1 -46 -44 0
1 -46 45 0
1 -46 58 0
1 -47 -25 0
1 47 -45 0
1 -52 -56 0
1 -52 16 0
1 -52 -9 0
1 13 -14 0
1 -13 4 0
1 -13 -46 0
1 13 54 0
1 -13 59 0
1 14 -55 0
1 -14 3 0
1 -14 -13 0
1 14 46 0
1 14 -17 0
1 -14 -10 0
1 57 60 0
1 -57 -55 0
1 -57 -7 0
1 57 29 0
1 -57 54 0
1 -57 -61 0
1 62 -63 0
1 62 7 0
1 -62 61 0
1 -55 -62 0
1 -55 -31 0
1 55 57 0
1 -55 -59 0
1 -55 -64 0
1 59 -62 0
1 59 -14 0
1 -59 -25 0
1 -59 55 0
1 -59 -65 0
1 59 -31 0
1 -59 -16 0
1 -53 14 0
1 53 -66 0
1 53 65 0
1 -53 -58 0
1 53 16 0
1 -53 64 0
1 53 -67 0
1 54 -56 0
1 -54 25 0
1 54 -53 0
1 54 68 0
1 54 64 0
1 31 -60 0
1 -31 -21 0
1 -31 6 0
1 31 -55 0
1 31 -63 0
1 31 -58 0
1 -31 7 0
1 31 8 0
1 31 34 0
1 -32 -56 0
1 -32 60 0
1 32 -22 0
1 32 8 0
1 38 -60 0
1 -38 -63 0
1 38 59 0
1 -39 -60 0
1 -39 -69 0
1 -70 -71 0
1 70 -3 0
1 -60 71 0
1 -60 -38 0
1 60 70 0
1 60 -10 0
1 60 72 0
1 -60 -73 0
1 -60 -39 0
1 60 32 0
1 63 -74 0
1 63 65 0
1 -63 38 0
1 -63 72 0
1 63 75 0
1 -63 39 0
1 -63 -61 0
1 -61 -74 0
1 -61 -65 0
1 -61 -38 0
1 -61 -63 0
1 -61 31 0
1 61 -57 0
1 -61 -72 0
1 61 -64 0
1 61 -39 0
1 61 32 0
1 -36 60 0
1 -36 -26 0
1 -36 65 0
1 -36 70 0
1 -36 34 0
1 37 -69 0
1 -37 70 0
1 37 -76 0
1 -37 77 0
1 -37 23 0
1 -37 -64 0
1 78 -60 0
1 78 79 0
1 -78 77 0
1 -78 35 0
1 73 60 0
1 -73 80 0
1 73 70 0
1 73 -81 0
1 -77 -69 0
1 77 -82 0
1 -77 -78 0
1 77 -38 0
1 77 8 0
1 77 83 0
1 -69 84 0
1 69 82 0
1 69 73 0
1 -69 -37 0
1 -76 36 0
1 -76 -73 0
1 -76 -37 0
1 -33 21 0
1 33 36 0
1 33 -85 0
1 -82 -71 0
1 -86 82 0
1 -86 -81 0
1 86 -35 0
1 -84 69 0
1 84 87 0
1 84 -79 0
1 -84 83 0
1 -84 35 0
1 83 69 0
1 -35 82 0
1 -35 23 0
1 -79 -83 0
1 -79 -73 0
1 79 -35 0
1 81 -86 0
1 80 -22 0
1 -80 -78 0
1 58 -51 0
1 58 -44 0
1 -58 53 0
1 -58 31 0
1 -58 -88 0
1 -58 -89 0
1 -58 -52 0
1 58 46 0
1 -56 -47 0
1 56 -44 0
1 56 46 0
1 -68 -51 0
1 68 90 0
1 68 -91 0
1 68 92 0
1 -68 -54 0
1 67 49 0
1 -67 91 0
1 67 -53 0
1 -67 -68 0
1 67 -88 0
1 67 92 0
1 -67 -93 0
1 67 39 0
1 49 -56 0
1 49 -43 0
1 49 -74 0
1 -49 65 0
1 49 -58 0
1 -89 56 0
1 -89 -49 0
1 89 -65 0
1 89 68 0
1 -89 58 0
1 89 64 0
1 -51 -56 0
1 -51 41 0
1 -51 -68 0
1 -88 -51 0
1 -88 -68 0
1 88 67 0
1 65 -49 0
1 65 89 0
1 -65 -92 0
1 -64 91 0
1 64 53 0
1 -64 93 0
1 64 -61 0
1 -74 -49 0
1 -74 -94 0
1 74 95 0
1 74 -63 0
1 -74 -89 0
1 -74 -92 0
1 -75 91 0
1 75 74 0
1 75 -66 0
1 -75 89 0
1 -91 93 0
1 -91 -87 0
1 -91 -44 0
1 -91 -71 0
1 -91 72 0
1 91 -64 0
1 -91 67 0
1 93 -91 0
1 93 -65 0
1 -93 -85 0
1 -93 -46 0
1 93 -75 0
1 -93 -64 0
1 -90 -74 0
1 -90 -68 0
1 -90 75 0
1 90 -64 0
1 92 90 0
1 -92 74 0
1 -92 -52 0
1 -92 -75 0
1 92 64 0
1 -71 -33 0
1 71 63 0
1 -71 -70 0
1 71 76 0
1 71 -61 0
1 -72 91 0
1 72 95 0
1 -72 -76 0
1 -72 86 0
1 -87 84 0
1 87 95 0
1 85 -91 0
1 -85 76 0
1 -85 -93 0
1 85 94 0
1 95 71 0
1 95 74 0
1 -95 -55 0
1 95 75 0
1 96 71 0
1 96 -85 0
1 -96 75 0
1 -96 59 0
1 -66 85 0
1 -66 -72 0
1 -66 -75 0
1 94 -71 0
1 94 -54 0
